
Gurobi 11.0.0 (win64) logging started Sun Mar  1 14:59:31 2026

Set parameter LogFile to value "gurobi_log.txt"
Gurobi Optimizer version 11.0.0 build v11.0.0rc2 (win64 - Windows 11+.0 (26200.2))

CPU model: AMD Ryzen 9 7945HX with Radeon Graphics, instruction set [SSE2|AVX|AVX2|AVX512]
Thread count: 16 physical cores, 32 logical processors, using up to 32 threads

Optimize a model with 5546 rows, 5439 columns and 35826 nonzeros
Model fingerprint: 0x68b87faf
Variable types: 147 continuous, 5292 integer (5292 binary)
Coefficient statistics:
  Matrix range     [1e+00, 1e+05]
  Objective range  [6e-03, 6e-01]
  Bounds range     [1e+00, 1e+00]
  RHS range        [4e-01, 1e+05]
Presolve removed 384 rows and 349 columns
Presolve time: 0.03s
Presolved: 5162 rows, 5090 columns, 33900 nonzeros
Variable types: 38 continuous, 5052 integer (5052 binary)

Root relaxation: objective 3.076681e+00, 226 iterations, 0.00 seconds (0.00 work units)

    Nodes    |    Current Node    |     Objective Bounds      |     Work
 Expl Unexpl |  Obj  Depth IntInf | Incumbent    BestBd   Gap | It/Node Time

     0     0    3.07668    0   27          -    3.07668      -     -    0s
     0     0    3.07668    0   30          -    3.07668      -     -    0s
     0     0    3.07668    0   27          -    3.07668      -     -    0s
     0     0    3.07668    0   31          -    3.07668      -     -    0s
     0     0    3.07668    0   27          -    3.07668      -     -    0s
     0     0    3.07668    0   43          -    3.07668      -     -    0s
     0     0    3.15290    0   72          -    3.15290      -     -    0s
     0     0    3.15290    0   72          -    3.15290      -     -    0s
     0     0    3.16132    0   59          -    3.16132      -     -    0s
     0     0    3.16552    0   66          -    3.16552      -     -    0s
     0     0    3.20286    0   73          -    3.20286      -     -    0s
     0     0    3.20286    0   73          -    3.20286      -     -    0s
     0     0    3.23030    0   73          -    3.23030      -     -    0s
     0     0    3.24747    0   71          -    3.24747      -     -    0s
     0     0    3.24931    0   74          -    3.24931      -     -    0s
     0     0    3.26475    0   61          -    3.26475      -     -    0s
     0     0    3.26475    0   61          -    3.26475      -     -    0s
     0     0    3.29025    0   62          -    3.29025      -     -    0s
     0     0    3.31342    0   60          -    3.31342      -     -    0s
     0     0    3.31342    0   59          -    3.31342      -     -    0s
     0     0    3.31773    0   56          -    3.31773      -     -    0s
     0     0    3.31773    0   53          -    3.31773      -     -    0s
     0     0    3.34789    0   71          -    3.34789      -     -    0s
     0     0    3.34789    0   73          -    3.34789      -     -    0s
     0     0    3.37766    0   57          -    3.37766      -     -    0s
     0     0    3.37791    0   63          -    3.37791      -     -    0s
     0     0    3.37791    0   52          -    3.37791      -     -    0s
     0     0    3.37791    0   52          -    3.37791      -     -    0s
     0     0    3.37791    0   35          -    3.37791      -     -    1s
     0     2    3.40339    0   34          -    3.40339      -     -    1s
  6572  6310    4.46587    6   70          -    3.62794      -  14.1    5s
H 6982  6013                      74.6935580    3.79420  94.9%  14.2    6s
H 6982  5711                      74.4269160    3.79420  94.9%  14.2    6s
H 6983  5426                      73.5008600    3.84300  94.8%  14.2    6s
H 6983  5154                      32.5196543    3.84300  88.2%  14.2    7s

Cutting planes:
  Learned: 20
  Gomory: 50
  Implied bound: 93
  MIR: 10
  Flow cover: 115
  Zero half: 26
  RLT: 19
  Relax-and-lift: 5

Explored 6984 nodes (107073 simplex iterations) in 7.09 seconds (10.78 work units)
Thread count was 32 (of 32 available processors)

Solution count 3: 32.5197 74.4269 74.6936 

Solve interrupted
Best objective 3.251965425620e+01, best bound 3.843001439545e+00, gap 88.1825%

Gurobi 11.0.0 (win64) logging started Sun Mar  1 14:59:49 2026

Set parameter LogFile to value "gurobi_log.txt"
Gurobi Optimizer version 11.0.0 build v11.0.0rc2 (win64 - Windows 11+.0 (26200.2))

CPU model: AMD Ryzen 9 7945HX with Radeon Graphics, instruction set [SSE2|AVX|AVX2|AVX512]
Thread count: 16 physical cores, 32 logical processors, using up to 32 threads

Optimize a model with 1586 rows, 1529 columns and 9526 nonzeros
Model fingerprint: 0x8e9cd469
Variable types: 77 continuous, 1452 integer (1452 binary)
Coefficient statistics:
  Matrix range     [1e+00, 1e+05]
  Objective range  [3e-02, 7e-01]
  Bounds range     [1e+00, 1e+00]
  RHS range        [3e-01, 1e+05]
Presolve removed 193 rows and 178 columns
Presolve time: 0.01s
Presolved: 1393 rows, 1351 columns, 8562 nonzeros
Variable types: 19 continuous, 1332 integer (1332 binary)

Root relaxation: objective 2.922613e+00, 221 iterations, 0.00 seconds (0.00 work units)

    Nodes    |    Current Node    |     Objective Bounds      |     Work
 Expl Unexpl |  Obj  Depth IntInf | Incumbent    BestBd   Gap | It/Node Time

     0     0    2.92261    0   24          -    2.92261      -     -    0s
H    0     0                      13.5334926    2.92261  78.4%     -    0s
H    0     0                      12.5975394    2.92261  76.8%     -    0s
H    0     0                      11.4896831    2.92261  74.6%     -    0s
     0     0    3.09633    0   40   11.48968    3.09633  73.1%     -    0s
     0     0    3.20054    0   46   11.48968    3.20054  72.1%     -    0s
     0     0    3.20613    0   43   11.48968    3.20613  72.1%     -    0s
H    0     0                      10.0446613    3.20613  68.1%     -    0s
     0     0    3.20613    0   49   10.04466    3.20613  68.1%     -    0s
     0     0    3.26287    0   46   10.04466    3.26287  67.5%     -    0s
     0     0    3.26287    0   46   10.04466    3.26287  67.5%     -    0s
     0     0    3.28863    0   52   10.04466    3.28863  67.3%     -    0s
     0     0    3.29241    0   54   10.04466    3.29241  67.2%     -    0s
     0     0    3.29241    0   57   10.04466    3.29241  67.2%     -    0s
     0     0    3.39076    0   54   10.04466    3.39076  66.2%     -    0s
H    0     0                       9.2850725    3.39111  63.5%     -    0s
     0     0    3.39379    0   48    9.28507    3.39379  63.4%     -    0s
     0     0    3.39379    0   53    9.28507    3.39379  63.4%     -    0s
     0     0    3.45667    0   56    9.28507    3.45667  62.8%     -    0s
     0     0    3.45667    0   59    9.28507    3.45667  62.8%     -    0s
     0     0    3.55248    0   60    9.28507    3.55248  61.7%     -    0s
H    0     0                       9.2727729    3.55302  61.7%     -    0s
     0     0    3.55302    0   66    9.27277    3.55302  61.7%     -    0s
     0     0    3.63574    0  102    9.27277    3.63574  60.8%     -    0s
     0     0    3.65917    0  119    9.27277    3.65917  60.5%     -    0s
     0     0    3.65917    0  114    9.27277    3.65917  60.5%     -    0s
     0     0    3.82811    0   79    9.27277    3.82811  58.7%     -    0s
     0     0    3.85536    0   79    9.27277    3.85536  58.4%     -    0s
     0     0    3.85536    0   81    9.27277    3.85536  58.4%     -    0s
     0     0    4.04163    0   47    9.27277    4.04163  56.4%     -    0s
     0     0    4.04308    0   71    9.27277    4.04308  56.4%     -    0s
     0     0    4.04315    0   69    9.27277    4.04315  56.4%     -    0s
     0     0    4.11701    0   53    9.27277    4.11701  55.6%     -    0s
     0     0    4.12238    0   95    9.27277    4.12238  55.5%     -    0s
     0     0    4.12278    0   96    9.27277    4.12278  55.5%     -    0s
H    0     0                       8.2230103    4.25076  48.3%     -    0s
     0     0    4.25076    0   72    8.22301    4.25076  48.3%     -    0s
H    0     0                       8.0999713    4.29733  46.9%     -    0s
     0     0    4.29733    0  128    8.09997    4.29733  46.9%     -    0s
     0     0    4.29787    0   98    8.09997    4.29787  46.9%     -    0s
     0     0    4.34914    0   78    8.09997    4.34914  46.3%     -    0s
     0     0    4.42523    0   71    8.09997    4.42523  45.4%     -    0s
     0     0    4.48871    0   88    8.09997    4.48871  44.6%     -    0s
     0     0    4.51800    0  103    8.09997    4.51800  44.2%     -    0s
     0     0    4.51995    0   83    8.09997    4.51995  44.2%     -    0s
H    0     0                       8.0844651    4.51995  44.1%     -    0s
     0     0    4.54731    0  131    8.08447    4.54731  43.8%     -    0s
     0     0    4.68238    0   81    8.08447    4.68238  42.1%     -    0s
     0     0    4.72303    0   79    8.08447    4.72303  41.6%     -    0s
     0     0    4.72303    0   86    8.08447    4.72303  41.6%     -    0s
     0     0    4.72706    0   71    8.08447    4.72706  41.5%     -    1s
     0     2    4.73081    0   64    8.08447    4.73081  41.5%     -    1s
H   31    44                       8.0331023    4.76036  40.7%   189    1s
H   32    44                       7.3089385    4.77023  34.7%   188    1s
H 1079   940                       7.2857283    4.78942  34.3%  57.9    2s
H 1089   935                       7.2409620    4.78942  33.9%  57.8    2s
H 1090   935                       7.2206690    4.78942  33.7%  57.7    2s
H 2432  1837                       7.1429485    4.84828  32.1%  48.2    2s
H 2453  1758                       7.1035158    5.86204  17.5%  47.8    3s
  2481  1777    5.97954   11  214    7.10352    5.97954  15.8%  47.2    5s
H 3105  2004                       6.9425264    6.29989  9.26%  69.1    9s
  4207  2209 infeasible   58         6.94253    6.30676  9.16%  66.3   10s
 17342  7620    6.68156   45  107    6.94253    6.42132  7.51%  47.6   15s
 31441 14543    6.86448   47  143    6.94253    6.46092  6.94%  43.5   20s
 45312 21249    6.49836   46   70    6.94253    6.47874  6.68%  40.5   25s
 53292 24015    6.56243   41   95    6.94253    6.48952  6.53%  39.5   30s
H53294 24015                       6.9425210    6.48952  6.53%  39.5   30s
H53337 24015                       6.9425157    6.48952  6.52%  39.5   30s
 60991 27505    6.54254   38   71    6.94252    6.49686  6.42%  38.2   44s
 60994 27507    6.55702   49   98    6.94252    6.49686  6.42%  38.1   45s
H61007 26139                       6.9425154    6.49686  6.42%  38.1   46s
H61009 24833                       6.9425140    6.49686  6.42%  38.1   47s
 61021 24841    6.60017   54  240    6.94251    6.49686  6.42%  38.1   50s
 61039 24853    6.74438   47  238    6.94251    6.49686  6.42%  38.1   55s
 61055 24864    6.62409   45  246    6.94251    6.49686  6.42%  38.1   60s
 61073 24876    6.84375   83  240    6.94251    6.49686  6.42%  38.1   65s
 61087 24885    6.67985   55  250    6.94251    6.49686  6.42%  38.1   70s
 61101 24894    6.66345   85  257    6.94251    6.49686  6.42%  38.1   75s
 61116 24904    6.68068   61  269    6.94251    6.49686  6.42%  38.1   80s

Cutting planes:
  Learned: 6
  Gomory: 1
  Lift-and-project: 31
  Cover: 3
  Implied bound: 3
  MIR: 99
  Flow cover: 75
  Zero half: 2
  RLT: 39
  Relax-and-lift: 25
  BQP: 5

Explored 61123 nodes (2357856 simplex iterations) in 82.84 seconds (75.33 work units)
Thread count was 32 (of 32 available processors)

Solution count 10: 6.94251 6.94252 6.94253 ... 8.0331

Solve interrupted
Best objective 6.942513982640e+00, best bound 6.496861331478e+00, gap 6.4192%
